500
150 150
1 105 288
2 105 581
3 105 76
4 105 249
5 105 883
6 105 509
7 105 895
8 105 361
9 104 410
10 104 801
11 104 781
12 104 567
13 104 472
14 104 264
15 104 161
16 104 112
17 103 707
18 103 35
19 103 945
20 103 190
21 103 999
22 103 438
23 103 236
24 103 876
25 102 795
26 102 76
27 102 977
28 102 982
29 102 325
30 102 133
31 101 983
32 101 89
33 101 52
34 101 265
35 101 819
36 101 604
37 100 533
38 100 863
39 100 0
40 100 4
41 100 633
42 100 162
43 100 937
44 99 590
45 99 61
46 99 35
47 99 301
48 99 726
49 99 239
50 98 7
51 98 859
52 98 197
53 98 100
54 98 268
55 98 80
56 98 22
57 98 883
58 98 46
59 97 504
60 97 724
61 97 471
62 96 998
63 96 37
64 96 969
65 96 542
66 96 25
67 96 873
68 96 583
69 96 909
70 96 389
71 96 755
72 95 312
73 95 781
74 95 925
75 95 92
76 95 807
77 94 427
78 94 674
79 94 507
80 94 396
81 94 388
82 94 116
83 93 629
84 93 295
85 93 207
86 93 811
87 93 617
88 93 617
89 93 159
90 93 635
91 92 833
92 92 354
93 92 373
94 92 297
95 92 176
96 92 379
97 92 922
98 92 542
99 92 667
100 92 313
101 92 871
102 91 806
103 91 811
104 91 71
105 90 688
106 90 593
107 90 812
108 90 445
109 90 217
110 90 178
111 90 722
112 90 325
113 90 662
114 89 988
115 89 756
116 89 658
117 89 259
118 89 39
119 89 243
120 89 982
121 88 273
122 88 410
123 88 400
124 88 117
125 88 634
126 87 799
127 87 498
128 87 879
129 87 408
130 87 496
131 86 952
132 86 168
133 86 525
134 85 752
135 85 123
136 85 980
137 85 791
138 84 417
139 84 922
140 84 505
141 84 762
142 84 468
143 84 163
144 83 425
145 83 771
146 83 13
147 83 630
148 83 435
149 83 267
150 83 598
151 83 62
152 82 779
153 82 462
154 82 998
155 82 117
156 82 169
157 82 662
158 81 827
159 80 13
160 80 948
161 80 60
162 80 891
163 80 534
164 80 56
165 80 419
166 80 298
167 80 485
168 80 793
169 80 964
170 80 103
171 80 899
172 79 42
173 79 206
174 79 717
175 79 474
176 79 17
177 79 435
178 79 804
179 78 815
180 78 976
181 78 581
182 77 242
183 77 898
184 77 244
185 77 728
186 77 362
187 77 1000
188 77 243
189 77 331
190 77 428
191 77 325
192 77 145
193 76 789
194 76 951
195 76 399
196 76 472
197 76 293
198 76 851
199 76 682
200 76 4
201 76 263
202 76 732
203 76 245
204 76 729
205 76 630
206 75 977
207 75 451
208 75 550
209 75 52
210 75 274
211 74 58
212 74 774
213 74 290
214 74 905
215 74 784
216 73 601
217 73 252
218 73 451
219 73 822
220 73 597
221 73 854
222 72 600
223 72 961
224 72 814
225 72 568
226 72 963
227 72 839
228 72 744
229 72 690
230 72 704
231 72 638
232 71 217
233 71 413
234 71 391
235 71 231
236 71 195
237 71 851
238 71 486
239 71 920
240 70 213
241 70 121
242 70 473
243 70 505
244 70 116
245 69 747
246 69 899
247 69 196
248 69 552
249 69 166
250 69 377
251 68 370
252 68 944
253 68 343
254 68 849
255 68 333
256 68 169
257 68 338
258 67 737
259 67 229
260 67 841
261 67 444
262 67 317
263 66 181
264 66 450
265 66 674
266 66 223
267 66 560
268 66 401
269 66 59
270 66 528
271 66 850
272 65 688
273 65 178
274 65 825
275 64 940
276 64 626
277 63 474
278 63 70
279 63 780
280 63 734
281 63 170
282 62 150
283 62 370
284 62 198
285 62 632
286 62 143
287 62 671
288 61 860
289 61 125
290 61 472
291 61 677
292 61 387
293 61 686
294 61 193
295 61 213
296 60 183
297 60 865
298 60 931
299 60 530
300 60 192
301 60 592
302 60 962
303 60 970
304 59 22
305 59 33
306 59 521
307 59 210
308 59 484
309 58 880
310 58 888
311 58 809
312 58 656
313 58 712
314 58 441
315 58 220
316 57 338
317 57 335
318 57 124
319 57 46
320 57 904
321 57 282
322 57 520
323 56 60
324 56 543
325 56 92
326 56 633
327 56 636
328 56 772
329 56 329
330 56 21
331 55 524
332 55 836
333 55 817
334 55 452
335 55 746
336 55 825
337 55 968
338 55 753
339 54 304
340 54 291
341 54 207
342 54 136
343 54 0
344 54 814
345 53 449
346 53 780
347 53 915
348 53 994
349 53 192
350 53 283
351 52 518
352 52 203
353 52 933
354 51 965
355 51 969
356 51 606
357 51 756
358 51 797
359 51 909
360 51 493
361 50 344
362 50 962
363 50 264
364 50 256
365 50 209
366 50 837
367 50 802
368 50 93
369 49 170
370 49 190
371 49 997
372 49 304
373 48 124
374 48 805
375 48 83
376 48 418
377 48 190
378 48 340
379 48 880
380 48 901
381 48 744
382 47 411
383 47 957
384 47 807
385 47 888
386 47 693
387 47 608
388 47 82
389 46 971
390 46 985
391 46 588
392 46 895
393 46 590
394 46 581
395 46 476
396 45 299
397 45 250
398 45 928
399 45 77
400 45 247
401 44 756
402 44 739
403 44 705
404 44 719
405 43 48
406 43 909
407 43 561
408 43 698
409 43 740
410 43 909
411 43 860
412 42 588
413 42 42
414 41 5
415 41 575
416 41 983
417 41 112
418 41 488
419 41 94
420 41 651
421 41 556
422 40 237
423 40 594
424 40 52
425 40 642
426 39 473
427 39 482
428 39 414
429 39 784
430 39 204
431 39 313
432 39 139
433 39 144
434 38 713
435 38 614
436 38 665
437 38 326
438 38 832
439 37 543
440 37 1
441 37 630
442 37 685
443 37 364
444 37 292
445 37 709
446 36 623
447 36 112
448 36 10
449 36 934
450 36 141
451 36 716
452 36 641
453 36 860
454 35 349
455 35 325
456 35 387
457 35 792
458 35 703
459 35 573
460 35 559
461 35 71
462 35 472
463 35 606
464 35 568
465 34 347
466 34 979
467 34 434
468 34 175
469 34 202
470 34 941
471 34 69
472 34 541
473 34 434
474 34 129
475 34 819
476 34 885
477 34 888
478 34 668
479 34 959
480 33 76
481 33 491
482 33 241
483 33 360
484 33 564
485 32 820
486 32 877
487 32 439
488 32 803
489 32 735
490 32 307
491 31 432
492 31 133
493 31 419
494 31 668
495 31 194
496 31 18
497 31 769
498 30 174
499 30 932
500 30 228
